40609
[0, 1, 60, 69, 65, 68, 67, 63, 66, 64, 48, 43, 49, 35, 38, 39, 37, 36, 42, 41, 40, 44, 46, 45, 61, 59, 10, 9, 13, 14, 5, 27, 22, 25, 23, 15, 28, 54, 52, 56, 53, 3, 30, 29, 21, 24, 6, 20, 17, 16, 19, 47, 33, 34, 32, 12, 11, 8, 7, 2, 4, 26, 55, 51, 50, 18, 31, 62, 58, 57, 0]
